n_res = 3;
rcap = [22, 17, 88];
rtype = [1, 1, 2];
n_tasks = 16;
modes = [ {1, 2, 3}, {4, 5, 6}, {7, 8, 9}, {10, 11, 12}, {13, 14, 15}, {16, 17, 18}, {19, 20, 21}, {22, 23, 24}, {25, 26, 27}, {28, 29, 30}, {31, 32, 33}, {34, 35, 36}, {37, 38, 39}, {40, 41, 42}, {43, 44, 45}, {46, 47, 48} ];
succ = [ {5, 9, 14}, {8, 9}, {4, 5, 6}, {7, 10, 11}, {10, 12}, {14, 15, 16}, {12, 15}, {11, 16}, {10, 11, 12}, {13}, {13}, {16}, {15}, {}, {}, {} ];
n_opt = 48;
dur = [2, 6, 8, 3, 5, 10, 5, 9, 10, 5, 6, 9, 5, 5, 5, 7, 7, 8, 5, 9, 10, 1, 6, 8, 1, 3, 5, 5, 7, 10, 1, 9, 10, 1, 2, 7, 1, 3, 8, 4, 6, 10, 4, 5, 10, 6, 7, 9];
rreq = [|  0,  5,  3, 10,  9,  8,  0,  9,  0,  7,  0,  7,  0,  0,  5,  8,  0,  0,  9,  9,  0,  6,  6,  0,  0,  7,  0, 10,  9,  8,  8,  5,  0,  0,  9,  0,  3,  0,  0,  0,  0,  0,  7,  6,  4,  5,  0,  4
        |  5,  0,  0,  0,  0,  0,  8,  0,  8,  0,  5,  0,  8,  3,  0,  0,  8,  5,  0,  0,  6,  0,  0,  9, 10,  0,  6,  0,  0,  0,  0,  0,  3,  6,  0,  6,  0,  7,  2,  4,  3,  3,  0,  0,  0,  0,  5,  0
        |  0,  9,  0, 10,  8,  0,  6,  5,  4,  4,  0,  0,  0,  9,  0,  0,  0,  0,  8,  0,  0,  6,  0,  0,  8,  0,  0,  8,  0,  7,  9,  6,  0,  8,  8,  7,  0,  6,  0,  7,  5,  0,  9,  8,  0,  7,  0,  0 |];
